problems/csplib-prob015/SchursLemma-models/noch/O2/lingeling/model_1_3-4-18-solution000001.eprime-solution
language ESSENCE' 1.0

letting boxes_PartitionAsSet_ExplicitR5_ExplicitVarSizeWithMarker_Marker be [4, 4, 4, 6; int(1..4)]
letting boxes_PartitionAsSet_ExplicitR5_ExplicitVarSizeWithMarker_Values be
        [[1, 5, 8, 16, 1, 1, 1, 1, 1, 1, 1, 1, 1, 1, 1, 1, 1, 1; int(1..18)],
         [3, 7, 11, 15, 1, 1, 1, 1, 1, 1, 1, 1, 1, 1, 1, 1, 1, 1; int(1..18)],
         [4, 9, 10, 12, 1, 1, 1, 1, 1, 1, 1, 1, 1, 1, 1, 1, 1, 1; int(1..18)],
         [2, 6, 13, 14, 17, 18, 1, 1, 1, 1, 1, 1, 1, 1, 1, 1, 1, 1; int(1..18)]; int(1..4)]
