problems/csplib-prob015/SchursLemma-models/noch/O2/lingeling/model_1_3-4-18-solution000001.solution
language Essence 1.3

letting boxes be partition({1, 5, 8, 16}, {2, 6, 13, 14, 17, 18}, {3, 7, 11, 15}, {4, 9, 10, 12})
